NAME : XML100_3316_14
COMMENT : Generated by Uchoa, Queiroga, and Vidal (2021)
TYPE : CVRP
DIMENSION : 101
EDGE_WEIGHT_TYPE : EUC_2D
CAPACITY : 25
NODE_COORD_SECTION
1    0    0   
2    130  363 
3    639  859 
4    578  709 
5    617  519 
6    167  974 
7    893  690 
8    492  782 
9    189  282 
10   542  535 
11   47   58  
12   133  225 
13   324  63  
14   93   283 
15   97   245 
16   409  665 
17   749  729 
18   180  191 
19   74   321 
20   107  312 
21   865  875 
22   574  199 
23   571  630 
24   112  369 
25   278  281 
26   623  503 
27   967  134 
28   320  920 
29   523  899 
30   588  447 
31   109  392 
32   357  860 
33   419  718 
34   769  343 
35   553  85  
36   226  369 
37   569  349 
38   636  708 
39   300  173 
40   928  398 
41   248  165 
42   535  386 
43   445  696 
44   476  698 
45   145  143 
46   34   880 
47   227  546 
48   718  853 
49   686  548 
50   54   272 
51   388  16  
52   692  871 
53   564  47  
54   575  234 
55   321  739 
56   173  920 
57   534  720 
58   112  246 
59   462  687 
60   17   185 
61   321  284 
62   436  891 
63   424  728 
64   401  683 
65   3    820 
66   91   380 
67   806  37  
68   456  736 
69   548  632 
70   136  262 
71   388  758 
72   742  861 
73   374  636 
74   783  218 
75   581  323 
76   466  685 
77   343  624 
78   89   178 
79   894  340 
80   407  634 
81   455  637 
82   721  645 
83   628  249 
84   233  397 
85   39   187 
86   445  555 
87   444  865 
88   408  834 
89   617  740 
90   445  379 
91   138  299 
92   170  362 
93   720  989 
94   381  617 
95   455  692 
96   520  673 
97   117  285 
98   405  670 
99   13   255 
100  469  667 
101  86   155 
DEMAND_SECTION
1    0   
2    1   
3    1   
4    1   
5    1   
6    1   
7    1   
8    1   
9    1   
10   1   
11   1   
12   1   
13   1   
14   1   
15   1   
16   1   
17   1   
18   1   
19   1   
20   1   
21   1   
22   1   
23   1   
24   1   
25   1   
26   1   
27   1   
28   1   
29   1   
30   1   
31   1   
32   1   
33   1   
34   1   
35   1   
36   1   
37   1   
38   1   
39   1   
40   1   
41   1   
42   1   
43   1   
44   1   
45   1   
46   1   
47   1   
48   1   
49   1   
50   1   
51   1   
52   1   
53   1   
54   1   
55   1   
56   1   
57   1   
58   1   
59   1   
60   1   
61   1   
62   1   
63   1   
64   1   
65   1   
66   1   
67   1   
68   1   
69   1   
70   1   
71   1   
72   1   
73   1   
74   1   
75   1   
76   1   
77   1   
78   1   
79   1   
80   1   
81   1   
82   1   
83   1   
84   1   
85   1   
86   1   
87   1   
88   1   
89   1   
90   1   
91   1   
92   1   
93   1   
94   1   
95   1   
96   1   
97   1   
98   1   
99   1   
100  1   
101  1   
DEPOT_SECTION
1
-1
EOF
